(set-logic HORN)
(declare-fun state (Int Int Int (Array Int Int) Int Bool Int Bool (Array Int Int) Int Int Int Int Int (Array Int Int) Int Int) Bool)
(assert (forall ((|.x.14| Int) (|main@%_5_0_0| Int) (|main@%_24_0_0| Int) (|main@%shadow.mem.1_0_0| (Array Int Int)) (|main@%_2_0_0| Int) (|main@%assume.flag.0_0_0| Bool) (|main@%.01.i.lcssa_0_0| Int) (|main@%_4_0_0| Bool) (|main@%_10_0_0| (Array Int Int)) (|main@%.pre_0_0| Int) (|main@%.13.i1_0_0| Int) (|main@%.01.i2_0_0| Int) (|@nd_char_0_0| Int) (|main@%.02.i3_0_0| Int) (|main@%shadow.mem.0_0_0| (Array Int Int)) (|@nd_0_0| Int) (|main@%_20_1| Int) (|.x.24| Int) (|.x.25| Int) (|.x.22| Int) (|.x.21| Int) (|.x.23| Int) (|main@%.02.i3_2| Int) (|.x.15| Int) (|main@%_4_1| Bool) (|.x.16| Int) (|.x.17| (Array Int Int)) (|.x.18| Bool) (|.x.19| Int) (|main@%_2_1| Int) (|main@%shadow.mem.0_2| (Array Int Int)) (|main@%_5_1| Int) (|.x.20| (Array Int Int)) (|.xtv.1| Int)) (=> (= .x.14 0) (state |.x.14| |main@%_5_0_0| |main@%_24_0_0| |main@%shadow.mem.1_0_0| |main@%_2_0_0| |main@%assume.flag.0_0_0| |main@%.01.i.lcssa_0_0| |main@%_4_0_0| |main@%_10_0_0| |main@%.pre_0_0| |main@%.13.i1_0_0| |main@%.01.i2_0_0| |@nd_char_0_0| |main@%.02.i3_0_0| |main@%shadow.mem.0_0_0| |@nd_0_0| |main@%_20_1|))))
(assert (forall ((|.x.14| Int) (|main@%_5_0_0| Int) (|main@%_24_0_0| Int) (|main@%shadow.mem.1_0_0| (Array Int Int)) (|main@%_2_0_0| Int) (|main@%assume.flag.0_0_0| Bool) (|main@%.01.i.lcssa_0_0| Int) (|main@%_4_0_0| Bool) (|main@%_10_0_0| (Array Int Int)) (|main@%.pre_0_0| Int) (|main@%.13.i1_0_0| Int) (|main@%.01.i2_0_0| Int) (|@nd_char_0_0| Int) (|main@%.02.i3_0_0| Int) (|main@%shadow.mem.0_0_0| (Array Int Int)) (|@nd_0_0| Int) (|main@%_20_1| Int) (|.x.24| Int) (|.x.25| Int) (|.x.22| Int) (|.x.21| Int) (|.x.23| Int) (|main@%.02.i3_2| Int) (|.x.15| Int) (|main@%_4_1| Bool) (|.x.16| Int) (|.x.17| (Array Int Int)) (|.x.18| Bool) (|.x.19| Int) (|main@%_2_1| Int) (|main@%shadow.mem.0_2| (Array Int Int)) (|main@%_5_1| Int) (|.x.20| (Array Int Int)) (|.xtv.1| Int)) (=> (and (state |.x.14| |main@%_5_0_0| |main@%_24_0_0| |main@%shadow.mem.1_0_0| |main@%_2_0_0| |main@%assume.flag.0_0_0| |main@%.01.i.lcssa_0_0| |main@%_4_0_0| |main@%_10_0_0| |main@%.pre_0_0| |main@%.13.i1_0_0| |main@%.01.i2_0_0| |@nd_char_0_0| |main@%.02.i3_0_0| |main@%shadow.mem.0_0_0| |@nd_0_0| |main@%_20_1|) (let ((.def_35 (= main@%.13.i1_0_0 .x.22))) (let ((.def_37 (= main@%.pre_0_0 .x.21))) (let ((.def_40 (= main@%.01.i2_0_0 .x.23))) (let ((.def_46 (= .x.15 1))) (let ((.def_50 (= main@%_24_0_0 .x.16))) (let ((.def_53 (= main@%shadow.mem.1_0_0 .x.17))) (let ((.def_56 (= main@%assume.flag.0_0_0 .x.18))) (let ((.def_59 (= main@%.01.i.lcssa_0_0 .x.19))) (let ((.def_64 (not (<= main@%_2_1 0)))) (let ((.def_65 (and main@%_4_1 .def_64))) (let ((.def_67 (<= main@%_20_1 .x.19))) (let ((.def_68 (not main@%_4_1))) (let ((.def_71 (= .x.16 1))) (let ((.def_74 (= .x.15 3))) (let ((.def_76 (= main@%.02.i3_0_0 main@%.02.i3_2))) (let ((.def_79 (= main@%shadow.mem.0_0_0 main@%shadow.mem.0_2))) (let ((.def_90 (= .x.15 4))) (let ((.def_99 (= main@%_10_0_0 .x.20))) (let ((.def_110 (<= (+ main@%_2_0_0 (* (- 1) main@%.02.i3_0_0)) 1))) (let ((.def_118 (= .x.20 (store main@%shadow.mem.0_0_0 (+ main@%_5_0_0 main@%.02.i3_0_0) main@%_20_1)))) (let ((.def_122 (<= main@%_5_0_0 0))) (let ((.def_123 (or (not (<= (+ main@%_5_0_0 main@%.02.i3_0_0) 0)) .def_122))) (let ((.def_125 (not .def_122))) (let ((.def_130 (= .x.14 1))) (let ((.def_132 (= main@%_5_0_0 main@%_5_1))) (let ((.def_134 (= main@%_2_0_0 main@%_2_1))) (let ((.def_136 (= main@%_4_0_0 main@%_4_1))) (let ((.def_142 (<= main@%_2_0_0 1))) (let ((.def_146 (and .def_59 (and .def_56 (and .def_50 .def_53))))) (let ((.def_158 (= .x.21 (select .x.20 main@%_5_0_0)))) (let ((.def_164 (= .x.15 2))) (let ((.def_182 (<= .x.21 .x.19))) (let ((.def_184 (= .x.17 .x.20))) (let ((.def_186 (= .x.21 .x.19))) (let ((.def_189 (not (<= main@%_2_0_0 0)))) (let ((.def_191 (= .x.18 (and main@%_4_0_0 .def_189)))) (let ((.def_196 (and .def_56 (and main@%_4_0_0 .def_50)))) (let ((.def_221 (select main@%_10_0_0 (+ main@%_5_0_0 main@%.13.i1_0_0)))) (let ((.def_224 (ite (not (<= .def_221 main@%.01.i2_0_0)) .def_221 main@%.01.i2_0_0))) (let ((.def_228 (<= (+ main@%_2_0_0 (* (- 1) main@%.13.i1_0_0)) 1))) (let ((.def_241 (or .def_122 (not (<= (+ main@%_5_0_0 main@%.13.i1_0_0) 0))))) (let ((.def_246 (= .x.14 2))) (let ((.def_264 (<= main@%.pre_0_0 .x.19))) (let ((.def_266 (= .x.19 .def_224))) (let ((.def_268 (= main@%_10_0_0 .x.17))) (let ((.def_295 (not (<= main@%_2_0_0 main@%_24_0_0)))) (let ((.def_313 (or .def_122 (not (<= (+ main@%_5_0_0 main@%_24_0_0) 0))))) (let ((.def_316 (<= (select main@%shadow.mem.1_0_0 (+ main@%_5_0_0 main@%_24_0_0)) main@%.01.i.lcssa_0_0))) (let ((.def_320 (= .x.14 3))) (and (and (= @nd_char_0_0 .x.24) (= @nd_0_0 .x.25)) (or (or (or (or (or (or (or (or (and (and (and .def_35 .def_37) .def_40) (or (and (or (or (and (= main@%.02.i3_2 0) (and (and (and (and (and .def_46 main@%_4_1) .def_50) .def_53) .def_56) .def_59)) (and (and (and (and (and (= .x.18 .def_65) (and .def_67 .def_68)) .def_71) .def_74) .def_76) .def_79)) (and (and (not .def_67) (and .def_79 (and .def_76 (and .def_68 (and .def_56 (and .def_50 .def_65)))))) .def_90)) (and (= main@%_4_1 .def_64) (and (and (= .x.14 0) (not (<= main@%_5_1 0))) .def_99))) (and (and (and (and (and (= (+ main@%.02.i3_0_0 (* (- 1) main@%.02.i3_2)) (- 1)) (and (= main@%shadow.mem.0_2 .x.20) (and (not .def_110) (and (and (and (and .def_59 (and .def_56 (and .def_53 (and .def_46 .def_50)))) .def_118) .def_123) .def_125)))) .def_130) .def_132) .def_134) .def_136))) (and (and (= .x.22 1) (and (= .x.21 .x.23) (and (not .def_142) (and (and .def_136 (and .def_134 (and .def_132 (and .def_130 (and .def_110 (and .def_125 (and .def_123 (and .def_118 (and .def_79 (and .def_76 .def_146)))))))))) .def_158)))) .def_164)) (and (and (and (and (and .def_142 (and .def_158 (and .def_136 (and .def_134 (and .def_132 (and .def_130 (and .def_110 (and .def_125 (and .def_123 (and .def_118 (and .def_79 (and .def_76 (and .def_74 (and .def_71 (and .def_35 .def_40))))))))))))))) .def_182) .def_184) .def_186) .def_191)) (and (not .def_182) (and .def_189 (and .def_186 (and .def_184 (and .def_142 (and .def_158 (and .def_136 (and .def_134 (and .def_132 (and .def_130 (and .def_110 (and .def_125 (and .def_123 (and .def_118 (and .def_90 (and .def_79 (and .def_76 (and .def_40 (and .def_35 .def_196)))))))))))))))))))) (and (and (= (+ main@%.13.i1_0_0 (* (- 1) .x.22)) (- 1)) (and (= .x.23 .def_224) (and (not .def_228) (and (and .def_164 (and .def_136 (and .def_134 (and .def_132 (and .def_125 (and .def_79 (and .def_76 (and .def_37 (and .def_99 .def_146))))))))) .def_241)))) .def_246)) (and (and (and (and .def_246 (and .def_228 (and .def_241 (and .def_191 (and .def_136 (and .def_134 (and .def_132 (and .def_125 (and .def_79 (and .def_76 (and .def_74 (and .def_71 (and .def_40 (and .def_35 (and .def_37 .def_99))))))))))))))) .def_264) .def_266) .def_268)) (and (not .def_264) (and .def_268 (and .def_266 (and .def_246 (and .def_228 (and .def_241 (and .def_189 (and .def_136 (and .def_134 (and .def_132 (and .def_125 (and .def_90 (and .def_79 (and .def_76 (and .def_40 (and .def_35 (and .def_37 (and .def_99 .def_196))))))))))))))))))) (and (and (= (+ main@%_24_0_0 (* (- 1) .x.16)) (- 1)) (and (= .x.18 (and main@%assume.flag.0_0_0 .def_295)) (and (and (and .def_136 (and .def_134 (and .def_132 (and .def_125 (and .def_79 (and .def_76 (and .def_74 (and .def_40 (and .def_35 (and .def_37 (and .def_99 (and .def_53 .def_59)))))))))))) .def_313) .def_316))) .def_320)) (and (not .def_316) (and .def_320 (and .def_295 (and .def_313 (and .def_136 (and .def_134 (and .def_132 (and .def_125 (and .def_90 (and .def_79 (and .def_76 (and .def_40 (and .def_35 (and .def_37 (and .def_99 (and .def_59 (and .def_56 (and .def_53 (and main@%assume.flag.0_0_0 .def_50))))))))))))))))))))))))))))))))))))))))))))))))))))))))))))))))))))))) (state |.x.15| |main@%_5_1| |.x.16| |.x.17| |main@%_2_1| |.x.18| |.x.19| |main@%_4_1| |.x.20| |.x.21| |.x.22| |.x.23| |.x.24| |main@%.02.i3_2| |main@%shadow.mem.0_2| |.x.25| |.xtv.1|))))
(assert (forall ((|.x.14| Int) (|main@%_5_0_0| Int) (|main@%_24_0_0| Int) (|main@%shadow.mem.1_0_0| (Array Int Int)) (|main@%_2_0_0| Int) (|main@%assume.flag.0_0_0| Bool) (|main@%.01.i.lcssa_0_0| Int) (|main@%_4_0_0| Bool) (|main@%_10_0_0| (Array Int Int)) (|main@%.pre_0_0| Int) (|main@%.13.i1_0_0| Int) (|main@%.01.i2_0_0| Int) (|@nd_char_0_0| Int) (|main@%.02.i3_0_0| Int) (|main@%shadow.mem.0_0_0| (Array Int Int)) (|@nd_0_0| Int) (|main@%_20_1| Int) (|.x.24| Int) (|.x.25| Int) (|.x.22| Int) (|.x.21| Int) (|.x.23| Int) (|main@%.02.i3_2| Int) (|.x.15| Int) (|main@%_4_1| Bool) (|.x.16| Int) (|.x.17| (Array Int Int)) (|.x.18| Bool) (|.x.19| Int) (|main@%_2_1| Int) (|main@%shadow.mem.0_2| (Array Int Int)) (|main@%_5_1| Int) (|.x.20| (Array Int Int)) (|.xtv.1| Int)) (=> (state |.x.14| |main@%_5_0_0| |main@%_24_0_0| |main@%shadow.mem.1_0_0| |main@%_2_0_0| |main@%assume.flag.0_0_0| |main@%.01.i.lcssa_0_0| |main@%_4_0_0| |main@%_10_0_0| |main@%.pre_0_0| |main@%.13.i1_0_0| |main@%.01.i2_0_0| |@nd_char_0_0| |main@%.02.i3_0_0| |main@%shadow.mem.0_0_0| |@nd_0_0| |main@%_20_1|) (not (= .x.14 4)))))
(check-sat)
